nTasks=4;
nThreads=8;
nCPUs=3;
nCores=6;
rh=[406.213599647 822.570720555 577.502458761 474.208945912 294.201365452 943.693141381 826.195414847 287.233658551];
rc=[536.202836832 433.640489989 608.513276858];
CK=[
	[1 1 0 0 0 0]
	[0 0 1 1 1 0]
	[0 0 0 0 0 1]
];
TH=[
	[1 1 0 0 0 0 0 0]
	[0 0 1 1 0 0 0 0]
	[0 0 0 0 1 1 0 0]
	[0 0 0 0 0 0 1 1]
];
